assets/logs/7_10x10_clingo/7_10x10_clingo.solution.log

-----------------------------------------
| 24| 30|  0| 43|  0|  0| 29| 47|  0| 62|
-----------------------------------------
| 87| 77| 26| 32| 31| 45| 63| 60| 27| 53|
-----------------------------------------
| 28| 22|  0| 75| 41|  0| 49| 55| 64| 58|
-----------------------------------------
| 79| 85| 34| 33|  0| 61| 71| 65| 51| 25|
-----------------------------------------
| 20| 35| 81| 39| 73| 14| 57| 66| 56| 67|
-----------------------------------------
| 83| 36| 18| 12| 59| 17|  3| 69| 23|  0|
-----------------------------------------
|  0|  0| 37| 15| 16| 10| 68| 19|  1| 54|
-----------------------------------------
| 38| 13| 42|  0| 86|  5| 78|  4| 70| 21|
-----------------------------------------
| 44|  0|  9|  0| 48| 82|  8| 74| 52|  2|
-----------------------------------------
| 11| 40| 46| 84|  7| 76| 50| 80|  6| 72|
-----------------------------------------

| n = 10 | k = 10 | coverage = 96, 96.0%
 Time 300.001
 Name 7_10x10_clingo

