assets/logs/7_10x10_clingo/7_10x10_clingo.log
clingo version 5.4.0
Reading from ...ts/logs/7_10x10_clingo/knights_tour.lp ...
Solving...
Answer: 1
occ(1,1,5) occ(1,9,4) occ(1,7,1) occ(1,9,2) occ(1,7,2) occ(1,4,5) occ(1,1,6) occ(1,3,6) occ(1,3,3) occ(1,1,3) occ(2,7,9) occ(3,9,10) coverage(6)
Optimization: -6
Answer: 2
occ(1,1,5) occ(1,9,4) occ(1,7,1) occ(1,9,2) occ(1,7,2) occ(1,4,5) occ(1,1,6) occ(1,3,6) occ(1,3,3) occ(1,1,3) occ(2,7,9) occ(3,9,10) coverage(7) occ(6,4,8) occ(4,5,10)
Optimization: -7
Answer: 3
occ(1,1,5) occ(1,9,4) occ(1,7,1) occ(1,9,2) occ(1,7,2) occ(1,4,5) occ(1,1,6) occ(1,3,6) occ(1,3,3) occ(1,1,3) occ(2,7,9) occ(3,9,10) coverage(68) occ(40,1,4) occ(44,1,8) occ(50,1,7) occ(73,1,1) occ(79,1,2) occ(33,2,2) occ(42,2,6) occ(46,2,10) occ(52,2,5) occ(71,2,3) occ(77,2,4) occ(25,3,1) occ(35,3,4) occ(38,3,5) occ(48,3,8) occ(54,3,7) occ(75,3,2) occ(8,4,7) occ(27,4,3) occ(31,4,1) occ(37,4,6) occ(56,4,9) occ(65,4,8) occ(69,4,4) occ(6,5,9) occ(10,5,5) occ(23,5,2) occ(36,5,4) occ(39,5,8) occ(58,5,7) occ(62,5,3) occ(67,5,6) occ(4,6,7) occ(11,6,3) occ(21,6,4) occ(29,6,2) occ(53,6,10) occ(57,6,8) occ(60,6,5) occ(63,6,9) occ(9,7,5) occ(12,7,6) occ(34,7,3) occ(41,7,7) occ(51,7,8) occ(59,7,10) occ(64,7,4) occ(13,8,2) occ(14,8,4) occ(18,8,6) occ(19,8,3) occ(24,8,7) occ(28,8,5) occ(32,8,1) occ(45,8,10) occ(55,8,9) occ(61,8,8) occ(7,9,6) occ(17,9,1) occ(22,9,9) occ(30,9,3) occ(43,9,8) occ(49,9,7) occ(66,9,5) occ(5,10,8) occ(15,10,3) occ(16,10,5) occ(20,10,7) occ(26,10,6) occ(47,10,9)
Optimization: -68
Answer: 4
occ(1,1,5) occ(1,9,4) occ(1,7,1) occ(1,9,2) occ(1,7,2) occ(1,4,5) occ(1,1,6) occ(1,3,6) occ(1,3,3) occ(1,1,3) occ(2,7,9) occ(3,9,10) coverage(70) occ(40,1,4) occ(44,1,8) occ(50,1,7) occ(73,1,1) occ(79,1,2) occ(33,2,2) occ(42,2,6) occ(46,2,10) occ(52,2,5) occ(71,2,3) occ(77,2,4) occ(25,3,1) occ(35,3,4) occ(38,3,5) occ(48,3,8) occ(54,3,7) occ(75,3,2) occ(8,4,7) occ(27,4,3) occ(31,4,1) occ(34,4,2) occ(37,4,6) occ(56,4,9) occ(65,4,8) occ(69,4,4) occ(6,5,9) occ(10,5,5) occ(23,5,2) occ(36,5,4) occ(39,5,8) occ(58,5,7) occ(62,5,3) occ(67,5,6) occ(4,6,7) occ(11,6,3) occ(21,6,4) occ(29,6,2) occ(32,6,1) occ(53,6,10) occ(57,6,8) occ(60,6,5) occ(63,6,9) occ(9,7,5) occ(12,7,6) occ(30,7,3) occ(41,7,7) occ(51,7,8) occ(59,7,10) occ(64,7,4) occ(13,8,2) occ(14,8,4) occ(18,8,6) occ(19,8,3) occ(24,8,7) occ(28,8,5) occ(45,8,10) occ(55,8,9) occ(61,8,8) occ(7,9,6) occ(17,9,1) occ(22,9,9) occ(43,9,8) occ(49,9,7) occ(66,9,3) occ(5,10,8) occ(15,10,3) occ(16,10,5) occ(20,10,7) occ(26,10,6) occ(47,10,9) occ(68,10,1)
Optimization: -70
Answer: 5
occ(1,1,5) occ(1,9,4) occ(1,7,1) occ(1,9,2) occ(1,7,2) occ(1,4,5) occ(1,1,6) occ(1,3,6) occ(1,3,3) occ(1,1,3) occ(2,7,9) occ(3,9,10) coverage(71) occ(40,1,4) occ(44,1,8) occ(50,1,7) occ(33,2,2) occ(42,2,6) occ(46,2,10) occ(52,2,5) occ(25,3,1) occ(35,3,4) occ(38,3,5) occ(48,3,8) occ(54,3,7) occ(8,4,7) occ(27,4,3) occ(31,4,1) occ(34,4,2) occ(37,4,6) occ(56,4,9) occ(65,4,8) occ(69,4,4) occ(6,5,9) occ(10,5,5) occ(23,5,2) occ(36,5,4) occ(39,5,8) occ(58,5,7) occ(62,5,3) occ(67,5,6) occ(4,6,7) occ(11,6,3) occ(21,6,4) occ(29,6,2) occ(32,6,1) occ(53,6,10) occ(57,6,8) occ(60,6,5) occ(63,6,9) occ(9,7,5) occ(12,7,6) occ(30,7,3) occ(41,7,7) occ(51,7,8) occ(59,7,10) occ(64,7,4) occ(13,8,2) occ(14,8,4) occ(18,8,6) occ(19,8,3) occ(24,8,7) occ(28,8,5) occ(45,8,10) occ(55,8,9) occ(61,8,8) occ(68,8,1) occ(7,9,6) occ(17,9,1) occ(22,9,9) occ(43,9,8) occ(49,9,7) occ(66,9,3) occ(5,10,8) occ(15,10,3) occ(16,10,5) occ(20,10,7) occ(26,10,6) occ(47,10,9) occ(70,10,2)
Optimization: -71
Answer: 6
occ(1,1,5) occ(1,9,4) occ(1,7,1) occ(1,9,2) occ(1,7,2) occ(1,4,5) occ(1,1,6) occ(1,3,6) occ(1,3,3) occ(1,1,3) occ(2,7,9) occ(3,9,10) coverage(72) occ(40,1,4) occ(44,1,8) occ(50,1,7) occ(73,1,1) occ(79,1,2) occ(33,2,2) occ(42,2,6) occ(46,2,10) occ(52,2,5) occ(71,2,3) occ(77,2,4) occ(25,3,1) occ(35,3,4) occ(38,3,5) occ(48,3,8) occ(54,3,7) occ(75,3,2) occ(8,4,7) occ(27,4,3) occ(31,4,1) occ(34,4,2) occ(37,4,6) occ(56,4,9) occ(65,4,8) occ(69,4,4) occ(6,5,9) occ(10,5,5) occ(23,5,2) occ(36,5,4) occ(39,5,8) occ(58,5,7) occ(62,5,3) occ(67,5,6) occ(4,6,7) occ(11,6,3) occ(21,6,4) occ(29,6,2) occ(32,6,1) occ(53,6,10) occ(57,6,8) occ(60,6,5) occ(63,6,9) occ(9,7,5) occ(12,7,6) occ(30,7,3) occ(41,7,7) occ(51,7,8) occ(59,7,10) occ(64,7,4) occ(13,8,2) occ(14,8,4) occ(18,8,6) occ(19,8,3) occ(24,8,7) occ(28,8,5) occ(45,8,10) occ(55,8,9) occ(61,8,8) occ(68,8,1) occ(7,9,6) occ(17,9,1) occ(22,9,9) occ(43,9,8) occ(49,9,7) occ(66,9,3) occ(5,10,8) occ(15,10,3) occ(16,10,5) occ(20,10,7) occ(26,10,6) occ(47,10,9) occ(70,10,2)
Optimization: -72
Answer: 7
occ(1,1,5) occ(1,9,4) occ(1,7,1) occ(1,9,2) occ(1,7,2) occ(1,4,5) occ(1,1,6) occ(1,3,6) occ(1,3,3) occ(1,1,3) occ(2,7,9) occ(3,9,10) coverage(74) occ(42,1,9) occ(54,1,7) occ(33,2,2) occ(36,2,3) occ(40,2,7) occ(46,2,8) occ(52,2,5) occ(25,3,1) occ(35,3,4) occ(38,3,5) occ(44,3,10) occ(50,3,7) occ(56,3,8) occ(71,3,2) occ(8,4,7) occ(27,4,3) occ(31,4,1) occ(34,4,2) occ(37,4,6) occ(48,4,9) occ(65,4,8) occ(69,4,4) occ(6,5,9) occ(10,5,5) occ(23,5,2) occ(32,5,4) occ(39,5,8) occ(58,5,7) occ(62,5,3) occ(67,5,6) occ(73,5,1) occ(4,6,7) occ(11,6,3) occ(21,6,4) occ(29,6,2) occ(30,6,6) occ(53,6,10) occ(57,6,8) occ(60,6,5) occ(63,6,9) occ(72,6,1) occ(9,7,5) occ(12,7,6) occ(41,7,7) occ(51,7,8) occ(59,7,10) occ(64,7,4) occ(70,7,3) occ(13,8,2) occ(14,8,4) occ(18,8,6) occ(19,8,3) occ(24,8,7) occ(28,8,5) occ(45,8,10) occ(55,8,9) occ(61,8,8) occ(68,8,1) occ(7,9,6) occ(17,9,1) occ(22,9,9) occ(43,9,8) occ(49,9,7) occ(66,9,3) occ(5,10,8) occ(15,10,3) occ(16,10,5) occ(20,10,7) occ(26,10,6) occ(47,10,9)
Optimization: -74
Answer: 8
occ(1,1,5) occ(1,9,4) occ(1,7,1) occ(1,9,2) occ(1,7,2) occ(1,4,5) occ(1,1,6) occ(1,3,6) occ(1,3,3) occ(1,1,3) occ(2,7,9) occ(3,9,10) coverage(75) occ(34,1,1) occ(52,1,4) occ(53,1,9) occ(32,2,3) occ(40,2,5) occ(54,2,6) occ(55,2,7) occ(61,2,2) occ(36,3,2) occ(42,3,7) occ(50,3,5) occ(51,3,10) occ(56,3,8) occ(59,3,4) occ(8,4,7) occ(30,4,2) occ(31,4,1) occ(38,4,4) occ(44,4,9) occ(49,4,8) occ(57,4,6) occ(58,4,10) occ(63,4,3) occ(6,5,9) occ(10,5,5) occ(28,5,4) occ(33,5,3) occ(41,5,7) occ(48,5,6) occ(60,5,8) occ(65,5,1) occ(76,5,2) occ(4,6,7) occ(29,6,2) occ(35,6,1) occ(39,6,5) occ(46,6,8) occ(47,6,9) occ(62,6,6) occ(67,6,3) occ(74,6,4) occ(12,7,6) occ(15,7,10) occ(18,7,7) occ(26,7,5) occ(37,7,3) occ(43,7,8) occ(64,7,4) occ(7,8,9) occ(13,8,8) occ(14,8,4) occ(21,8,6) occ(24,8,7) occ(27,8,1) occ(45,8,10) occ(68,8,3) occ(69,8,2) occ(72,8,5) occ(9,9,7) occ(16,9,6) occ(17,9,9) occ(20,9,8) occ(25,9,3) occ(66,9,5) occ(73,9,1) occ(5,10,8) occ(11,10,9) occ(19,10,7) occ(22,10,6) occ(23,10,5) occ(70,10,4) occ(71,10,3)
Optimization: -75
Answer: 9
occ(1,1,5) occ(1,9,4) occ(1,7,1) occ(1,9,2) occ(1,7,2) occ(1,4,5) occ(1,1,6) occ(1,3,6) occ(1,3,3) occ(1,1,3) occ(2,7,9) occ(3,9,10) coverage(80) occ(16,1,8) occ(23,1,2) occ(26,1,7) occ(46,1,9) occ(59,1,4) occ(18,2,10) occ(21,2,4) occ(24,2,9) occ(28,2,5) occ(48,2,7) occ(55,2,3) occ(61,2,2) occ(69,2,6) occ(73,2,8) occ(14,3,9) occ(19,3,2) occ(20,3,8) occ(25,3,1) occ(44,3,10) occ(57,3,5) occ(67,3,4) occ(77,3,7) occ(17,4,4) occ(22,4,10) occ(30,4,6) occ(50,4,8) occ(53,4,2) occ(63,4,3) occ(71,4,7) occ(75,4,9) occ(8,5,4) occ(12,5,8) occ(27,5,2) occ(33,5,7) occ(42,5,9) occ(52,5,10) occ(65,5,5) occ(79,5,6) occ(4,6,7) occ(10,6,6) occ(15,6,3) occ(29,6,4) occ(32,6,5) occ(36,6,9) occ(51,6,1) occ(54,6,8) occ(70,6,2) occ(6,7,5) occ(31,7,6) occ(34,7,7) occ(35,7,8) occ(40,7,10) occ(49,7,3) occ(72,7,4) occ(7,8,9) occ(13,8,4) occ(38,8,8) occ(41,8,6) occ(47,8,5) occ(56,8,7) occ(64,8,3) occ(68,8,1) occ(78,8,2) occ(9,9,7) occ(37,9,9) occ(43,9,8) occ(58,9,5) occ(62,9,1) occ(74,9,3) occ(5,10,8) occ(11,10,5) occ(39,10,7) occ(45,10,6) occ(60,10,3) occ(66,10,2) occ(76,10,1)
Optimization: -80
Answer: 10
occ(1,1,5) occ(1,9,4) occ(1,7,1) occ(1,9,2) occ(1,7,2) occ(1,4,5) occ(1,1,6) occ(1,3,6) occ(1,3,3) occ(1,1,3) occ(2,7,9) occ(3,9,10) coverage(81) occ(26,1,7) occ(30,1,9) occ(43,1,8) occ(47,1,4) occ(57,1,1) occ(79,1,2) occ(15,2,5) occ(24,2,9) occ(32,2,7) occ(42,2,8) occ(45,2,6) occ(55,2,3) occ(65,2,2) occ(13,3,7) occ(28,3,8) occ(41,3,9) occ(44,3,10) occ(49,3,5) occ(59,3,2) occ(77,3,1) occ(11,4,9) occ(17,4,4) occ(22,4,8) occ(34,4,6) occ(40,4,7) occ(53,4,2) occ(63,4,3) occ(67,4,1) occ(19,5,6) occ(20,5,10) occ(33,5,7) occ(38,5,5) occ(39,5,8) occ(46,5,9) occ(51,5,4) occ(61,5,1) occ(69,5,3) occ(75,5,2) occ(8,6,3) occ(9,6,10) occ(18,6,8) occ(21,6,4) occ(31,6,9) occ(35,6,5) occ(36,6,7) occ(70,6,2) occ(71,6,1) occ(74,6,6) occ(6,7,5) occ(16,7,6) occ(37,7,7) occ(48,7,10) occ(72,7,4) occ(73,7,3) occ(76,7,8) occ(4,8,7) occ(7,8,9) occ(10,8,2) occ(23,8,5) occ(29,8,8) occ(54,8,6) occ(58,8,4) occ(64,8,3) occ(68,8,1) occ(78,8,10) occ(14,9,5) occ(25,9,7) occ(50,9,9) occ(60,9,6) occ(80,9,8) occ(5,10,8) occ(12,10,3) occ(27,10,9) occ(52,10,7) occ(56,10,5) occ(62,10,4) occ(66,10,2)
Optimization: -81
Answer: 11
occ(1,1,5) occ(1,9,4) occ(1,7,1) occ(1,9,2) occ(1,7,2) occ(1,4,5) occ(1,1,6) occ(1,3,6) occ(1,3,3) occ(1,1,3) occ(2,7,9) occ(3,9,10) coverage(82) occ(26,1,7) occ(30,1,9) occ(43,1,8) occ(47,1,4) occ(57,1,1) occ(79,1,2) occ(15,2,5) occ(24,2,9) occ(32,2,7) occ(42,2,8) occ(45,2,6) occ(55,2,3) occ(65,2,2) occ(81,2,4) occ(13,3,7) occ(28,3,8) occ(41,3,9) occ(44,3,10) occ(49,3,5) occ(59,3,2) occ(77,3,1) occ(11,4,9) occ(17,4,4) occ(22,4,8) occ(34,4,6) occ(40,4,7) occ(53,4,2) occ(63,4,3) occ(67,4,1) occ(19,5,6) occ(20,5,10) occ(33,5,7) occ(38,5,5) occ(39,5,8) occ(46,5,9) occ(51,5,4) occ(61,5,1) occ(69,5,3) occ(75,5,2) occ(8,6,3) occ(9,6,10) occ(18,6,8) occ(21,6,4) occ(31,6,9) occ(35,6,5) occ(36,6,7) occ(70,6,2) occ(71,6,1) occ(74,6,6) occ(6,7,5) occ(16,7,6) occ(37,7,7) occ(48,7,10) occ(72,7,4) occ(73,7,3) occ(76,7,8) occ(4,8,7) occ(7,8,9) occ(10,8,2) occ(23,8,5) occ(29,8,8) occ(54,8,6) occ(58,8,4) occ(64,8,3) occ(68,8,1) occ(78,8,10) occ(14,9,5) occ(25,9,7) occ(50,9,9) occ(60,9,6) occ(80,9,8) occ(5,10,8) occ(12,10,3) occ(27,10,9) occ(52,10,7) occ(56,10,5) occ(62,10,4) occ(66,10,2)
Optimization: -82
Answer: 12
occ(1,1,5) occ(1,9,4) occ(1,7,1) occ(1,9,2) occ(1,7,2) occ(1,4,5) occ(1,1,6) occ(1,3,6) occ(1,3,3) occ(1,1,3) occ(2,7,9) occ(3,9,10) coverage(83) occ(26,1,7) occ(30,1,9) occ(43,1,8) occ(47,1,4) occ(57,1,1) occ(79,1,2) occ(15,2,5) occ(24,2,9) occ(32,2,7) occ(42,2,8) occ(45,2,6) occ(55,2,3) occ(65,2,2) occ(81,2,4) occ(13,3,7) occ(28,3,8) occ(41,3,9) occ(44,3,10) occ(49,3,5) occ(59,3,2) occ(77,3,1) occ(11,4,9) occ(17,4,4) occ(22,4,8) occ(34,4,6) occ(40,4,7) occ(53,4,2) occ(63,4,3) occ(67,4,1) occ(19,5,6) occ(20,5,10) occ(33,5,7) occ(38,5,5) occ(39,5,8) occ(46,5,9) occ(51,5,4) occ(61,5,1) occ(69,5,3) occ(75,5,2) occ(8,6,3) occ(9,6,10) occ(18,6,8) occ(21,6,4) occ(31,6,9) occ(35,6,5) occ(36,6,7) occ(70,6,2) occ(71,6,1) occ(74,6,6) occ(6,7,5) occ(16,7,6) occ(37,7,7) occ(48,7,10) occ(72,7,4) occ(73,7,3) occ(76,7,8) occ(4,8,7) occ(7,8,9) occ(10,8,2) occ(23,8,5) occ(29,8,8) occ(54,8,6) occ(58,8,4) occ(64,8,3) occ(68,8,1) occ(78,8,10) occ(14,9,5) occ(25,9,7) occ(50,9,9) occ(60,9,6) occ(80,9,8) occ(5,10,8) occ(12,10,3) occ(27,10,9) occ(52,10,7) occ(56,10,5) occ(62,10,4) occ(66,10,2) occ(82,10,10)
Optimization: -83
Answer: 13
occ(1,1,5) occ(1,9,4) occ(1,7,1) occ(1,9,2) occ(1,7,2) occ(1,4,5) occ(1,1,6) occ(1,3,6) occ(1,3,3) occ(1,1,3) occ(2,7,9) occ(3,9,10) coverage(84) occ(14,1,7) occ(22,1,1) occ(48,1,4) occ(56,1,2) occ(73,1,9) occ(79,1,8) occ(16,2,5) occ(20,2,3) occ(46,2,6) occ(50,2,2) occ(54,2,4) occ(74,2,8) occ(75,2,7) occ(83,2,9) occ(12,3,8) occ(24,3,2) occ(44,3,4) occ(58,3,1) occ(71,3,10) occ(77,3,9) occ(81,3,7) occ(6,4,8) occ(10,4,6) occ(18,4,4) occ(19,4,1) occ(42,4,2) occ(45,4,10) occ(52,4,3) occ(72,4,9) occ(76,4,7) occ(4,5,10) occ(15,5,4) occ(21,5,3) occ(26,5,1) occ(47,5,8) occ(60,5,2) occ(64,5,6) occ(69,5,9) occ(70,5,7) occ(78,5,5) occ(8,6,7) occ(17,6,2) occ(23,6,5) occ(28,6,3) occ(40,6,1) occ(43,6,9) occ(49,6,6) occ(62,6,4) occ(65,6,10) occ(66,6,8) occ(7,7,10) occ(13,7,5) occ(38,7,3) occ(41,7,7) occ(67,7,8) occ(68,7,6) occ(80,7,4) occ(5,8,8) occ(11,8,7) occ(25,8,6) occ(30,8,4) occ(35,8,3) occ(36,8,1) occ(51,8,5) occ(57,8,10) occ(63,8,9) occ(82,8,2) occ(9,9,9) occ(29,9,5) occ(33,9,1) occ(34,9,3) occ(39,9,6) occ(55,9,8) occ(61,9,7) occ(27,10,7) occ(31,10,3) occ(32,10,5) occ(37,10,4) occ(53,10,6) occ(59,10,9)
Optimization: -84
Answer: 14
occ(1,1,5) occ(1,9,4) occ(1,7,1) occ(1,9,2) occ(1,7,2) occ(1,4,5) occ(1,1,6) occ(1,3,6) occ(1,3,3) occ(1,1,3) occ(2,7,9) occ(3,9,10) coverage(85) occ(14,1,7) occ(22,1,1) occ(48,1,4) occ(56,1,2) occ(73,1,9) occ(79,1,8) occ(16,2,5) occ(20,2,3) occ(46,2,6) occ(50,2,2) occ(54,2,4) occ(74,2,8) occ(75,2,7) occ(83,2,9) occ(12,3,8) occ(24,3,2) occ(44,3,4) occ(58,3,1) occ(71,3,10) occ(77,3,9) occ(81,3,7) occ(6,4,8) occ(10,4,6) occ(18,4,4) occ(19,4,1) occ(42,4,2) occ(45,4,10) occ(52,4,3) occ(72,4,9) occ(76,4,7) occ(4,5,10) occ(15,5,4) occ(21,5,3) occ(26,5,1) occ(47,5,8) occ(60,5,2) occ(64,5,6) occ(69,5,9) occ(70,5,7) occ(78,5,5) occ(8,6,7) occ(17,6,2) occ(23,6,5) occ(28,6,3) occ(40,6,1) occ(43,6,9) occ(49,6,6) occ(62,6,4) occ(65,6,10) occ(66,6,8) occ(7,7,10) occ(13,7,5) occ(38,7,3) occ(41,7,7) occ(67,7,8) occ(68,7,6) occ(80,7,4) occ(5,8,8) occ(11,8,7) occ(25,8,6) occ(30,8,4) occ(35,8,3) occ(36,8,1) occ(51,8,5) occ(57,8,10) occ(63,8,9) occ(82,8,2) occ(9,9,9) occ(29,9,5) occ(33,9,1) occ(34,9,3) occ(39,9,6) occ(55,9,8) occ(61,9,7) occ(27,10,7) occ(31,10,3) occ(32,10,5) occ(37,10,4) occ(53,10,6) occ(59,10,9) occ(84,10,1)
Optimization: -85
Answer: 15
occ(1,1,5) occ(1,9,4) occ(1,7,1) occ(1,9,2) occ(1,7,2) occ(1,4,5) occ(1,1,6) occ(1,3,6) occ(1,3,3) occ(1,1,3) occ(2,7,9) occ(3,9,10) coverage(86) occ(40,1,2) occ(43,1,8) occ(56,1,4) occ(69,1,7) occ(84,1,10) occ(35,2,3) occ(38,2,4) occ(41,2,6) occ(45,2,10) occ(52,2,7) occ(58,2,2) occ(63,2,9) occ(67,2,5) occ(32,3,2) occ(39,3,4) occ(42,3,1) occ(54,3,5) occ(65,3,7) occ(71,3,8) occ(82,3,9) occ(27,4,7) occ(33,4,4) occ(36,4,3) occ(37,4,2) occ(47,4,9) occ(50,4,8) occ(60,4,1) occ(61,4,10) occ(77,4,6) occ(12,5,4) occ(25,5,9) occ(29,5,5) occ(30,5,3) occ(34,5,1) occ(44,5,2) occ(48,5,6) occ(73,5,7) occ(79,5,8) occ(80,5,10) occ(16,6,7) occ(28,6,1) occ(31,6,3) occ(46,6,4) occ(49,6,10) occ(59,6,9) occ(62,6,2) occ(75,6,5) occ(78,6,8) occ(81,6,6) occ(10,7,3) occ(14,7,5) occ(20,7,4) occ(23,7,10) occ(57,7,7) occ(76,7,6) occ(83,7,8) occ(4,8,7) occ(8,8,5) occ(9,8,4) occ(17,8,8) occ(18,8,6) occ(26,8,2) occ(51,8,9) occ(64,8,1) occ(68,8,3) occ(85,8,10) occ(7,9,6) occ(13,9,7) occ(21,9,9) occ(22,9,3) occ(55,9,8) occ(70,9,1) occ(74,9,5) occ(5,10,8) occ(6,10,6) occ(11,10,5) occ(15,10,9) occ(19,10,7) occ(24,10,1) occ(53,10,10) occ(66,10,2) occ(72,10,3)
Optimization: -86
Answer: 16
occ(1,1,5) occ(1,9,4) occ(1,7,1) occ(1,9,2) occ(1,7,2) occ(1,4,5) occ(1,1,6) occ(1,3,6) occ(1,3,3) occ(1,1,3) occ(2,7,9) occ(3,9,10) coverage(87) occ(40,1,2) occ(43,1,8) occ(56,1,4) occ(69,1,7) occ(84,1,10) occ(35,2,3) occ(38,2,4) occ(41,2,6) occ(45,2,10) occ(52,2,7) occ(58,2,2) occ(63,2,9) occ(67,2,5) occ(86,2,8) occ(32,3,2) occ(39,3,4) occ(42,3,1) occ(54,3,5) occ(65,3,7) occ(71,3,8) occ(82,3,9) occ(27,4,7) occ(33,4,4) occ(36,4,3) occ(37,4,2) occ(47,4,9) occ(50,4,8) occ(60,4,1) occ(61,4,10) occ(77,4,6) occ(12,5,4) occ(25,5,9) occ(29,5,5) occ(30,5,3) occ(34,5,1) occ(44,5,2) occ(48,5,6) occ(73,5,7) occ(79,5,8) occ(80,5,10) occ(16,6,7) occ(28,6,1) occ(31,6,3) occ(46,6,4) occ(49,6,10) occ(59,6,9) occ(62,6,2) occ(75,6,5) occ(78,6,8) occ(81,6,6) occ(10,7,3) occ(14,7,5) occ(20,7,4) occ(23,7,10) occ(57,7,7) occ(76,7,6) occ(83,7,8) occ(4,8,7) occ(8,8,5) occ(9,8,4) occ(17,8,8) occ(18,8,6) occ(26,8,2) occ(51,8,9) occ(64,8,1) occ(68,8,3) occ(85,8,10) occ(7,9,6) occ(13,9,7) occ(21,9,9) occ(22,9,3) occ(55,9,8) occ(70,9,1) occ(74,9,5) occ(5,10,8) occ(6,10,6) occ(11,10,5) occ(15,10,9) occ(19,10,7) occ(24,10,1) occ(53,10,10) occ(66,10,2) occ(72,10,3)
Optimization: -87
Answer: 17
occ(1,1,5) occ(1,9,4) occ(1,7,1) occ(1,9,2) occ(1,7,2) occ(1,4,5) occ(1,1,6) occ(1,3,6) occ(1,3,3) occ(1,1,3) occ(2,7,9) occ(3,9,10) coverage(88) occ(40,1,2) occ(43,1,8) occ(56,1,4) occ(69,1,7) occ(86,1,9) occ(87,1,10) occ(35,2,3) occ(38,2,4) occ(41,2,6) occ(45,2,10) occ(58,2,2) occ(63,2,9) occ(67,2,5) occ(84,2,7) occ(85,2,8) occ(8,3,10) occ(32,3,2) occ(39,3,4) occ(42,3,1) occ(54,3,5) occ(65,3,7) occ(71,3,8) occ(82,3,9) occ(6,4,8) occ(33,4,4) occ(36,4,3) occ(37,4,2) occ(47,4,9) occ(60,4,1) occ(61,4,10) occ(77,4,6) occ(83,4,7) occ(10,5,9) occ(30,5,3) occ(34,5,1) occ(44,5,2) occ(48,5,4) occ(52,5,6) occ(73,5,7) occ(79,5,8) occ(80,5,10) occ(4,6,7) occ(28,6,1) occ(31,6,3) occ(49,6,10) occ(59,6,9) occ(62,6,2) occ(75,6,5) occ(78,6,8) occ(81,6,6) occ(12,7,10) occ(19,7,8) occ(20,7,4) occ(46,7,3) occ(50,7,5) occ(57,7,7) occ(76,7,6) occ(11,8,5) occ(14,8,8) occ(15,8,7) occ(18,8,6) occ(21,8,10) occ(26,8,2) occ(29,8,4) occ(51,8,9) occ(64,8,1) occ(68,8,3) occ(7,9,6) occ(17,9,9) occ(22,9,3) occ(25,9,7) occ(55,9,8) occ(70,9,1) occ(74,9,5) occ(5,10,8) occ(9,10,4) occ(13,10,6) occ(16,10,7) occ(23,10,9) occ(24,10,1) occ(27,10,5) occ(53,10,10) occ(66,10,2) occ(72,10,3)
Optimization: -88
Answer: 18
occ(1,1,5) occ(1,9,4) occ(1,7,1) occ(1,9,2) occ(1,7,2) occ(1,4,5) occ(1,1,6) occ(1,3,6) occ(1,3,3) occ(1,1,3) occ(2,7,9) occ(3,9,10) coverage(89) occ(25,1,1) occ(30,1,7) occ(31,1,2) occ(44,1,4) occ(48,1,8) occ(63,1,10) occ(27,2,3) occ(28,2,9) occ(32,2,5) occ(33,2,4) occ(46,2,6) occ(54,2,10) occ(61,2,8) occ(64,2,7) occ(78,2,2) occ(88,2,1) occ(23,3,2) occ(29,3,1) occ(42,3,5) occ(50,3,7) occ(56,3,8) occ(59,3,10) occ(65,3,9) occ(76,3,4) occ(26,4,10) occ(34,4,4) occ(35,4,3) occ(52,4,9) occ(62,4,6) occ(66,4,8) occ(72,4,7) occ(80,4,1) occ(86,4,2) occ(15,5,6) occ(21,5,1) occ(36,5,2) occ(40,5,4) occ(57,5,9) occ(58,5,7) occ(67,5,8) occ(68,5,10) occ(74,5,5) occ(82,5,3) occ(4,6,7) occ(13,6,4) occ(18,6,6) occ(19,6,3) occ(24,6,9) occ(37,6,2) occ(60,6,5) occ(70,6,8) occ(84,6,1) occ(11,7,6) occ(16,7,4) occ(17,7,5) occ(20,7,8) occ(38,7,3) occ(55,7,10) occ(69,7,7) occ(5,8,8) occ(6,8,6) occ(14,8,2) occ(22,8,10) occ(39,8,1) occ(43,8,3) occ(71,8,9) occ(79,8,7) occ(87,8,5) occ(9,9,7) occ(10,9,3) occ(45,9,1) occ(49,9,5) occ(53,9,9) occ(75,9,8) occ(83,9,6) occ(7,10,9) occ(8,10,5) occ(12,10,1) occ(41,10,2) occ(47,10,3) occ(51,10,7) occ(73,10,10) occ(77,10,6) occ(81,10,8) occ(85,10,4)
Optimization: -89
*** Info : (clingo): INTERRUPTED by signal!
SATISFIABLE

TIME LIMIT   : 1
Models       : 18+
  Optimum    : unknown
Optimization : -89
Calls        : 1
Time         : 300.000s (Solving: 298.60s 1st Model: 0.00s Unsat: 0.00s)
CPU Time     : 300.001s
